enter Q
Maximize

159 dSta_0 + 4 d0_1 + 0 d0_1 + 0 d0_1.0 + 0 d0_1.0 + 60 d0_1 + 0 d0_1.0 + 0 d0_1.0 + 5 d1_2 + 0 d1_2 + 0 d1_2.0 + 0 d1_2.0 + 0 d1_2 + 60 d1_2.0 + 0 d1_2.0 + 4 dc2_3 + 30 dc2_3 + 0 dc2_3.0 + 0 dc2_3.0 + 0 dc2_3 + 60 dc2_3.0 + 0 dc2_3.0 + 7 dm2_3 + 30 dm2_3 + 0 dm2_3.0 + 0 dm2_3.0 + 0 dm2_3 + 60 dm2_3.0 + 0 dm2_3.0 + 5 dc2_2 + 30 dc2_2 + 0 dc2_2.0 + 0 dc2_2.0 + 0 dc2_2 + 60 dc2_2.0 + 0 dc2_2.0 + 8 dm2_2 + 30 dm2_2 + 0 dm2_2.0 + 0 dm2_2.0 + 0 dm2_2 + 60 dm2_2.0 + 0 dm2_2.0 + 3 dc3_4 + 0 dc3_4 + 0 dc3_4.0 + 0 dc3_4.0 + 0 dc3_4 + 60 dc3_4.0 + 0 dc3_4.0 + 6 dm3_4 + 0 dm3_4 + 0 dm3_4.0 + 0 dm3_4.0 + 0 dm3_4 + 60 dm3_4.0 + 0 dm3_4.0 + 4 dc3_1 + 0 dc3_1 + 0 dc3_1.0 + 0 dc3_1.0 + 0 dc3_1 + 60 dc3_1.0 + 0 dc3_1.0 + 7 dm3_1 + 0 dm3_1 + 0 dm3_1.0 + 0 dm3_1.0 + 0 dm3_1 + 60 dm3_1.0 + 0 dm3_1.0 + 3 d4_5 + 0 d4_5 + 0 d4_5.0 + 0 d4_5.0 + 30 d4_5 + 30 d4_5.0 + 0 d4_5.0 + 5 d5_6 + 0 d5_6 + 0 d5_6.0 + 0 d5_6.0 + 0 d5_6 + 60 d5_6.0 + 0 d5_6.0 + 4 dc6_7 + 30 dc6_7 + 0 dc6_7.0 + 0 dc6_7.0 + 0 dc6_7 + 60 dc6_7.0 + 0 dc6_7.0 + 7 dm6_7 + 30 dm6_7 + 0 dm6_7.0 + 0 dm6_7.0 + 0 dm6_7 + 60 dm6_7.0 + 0 dm6_7.0 + 5 dc6_6 + 30 dc6_6 + 0 dc6_6.0 + 0 dc6_6.0 + 0 dc6_6 + 60 dc6_6.0 + 0 dc6_6.0 + 8 dm6_6 + 30 dm6_6 + 0 dm6_6.0 + 0 dm6_6.0 + 0 dm6_6 + 60 dm6_6.0 + 0 dm6_6.0 + 3 dc7_8 + 0 dc7_8 + 0 dc7_8.0 + 0 dc7_8.0 + 0 dc7_8 + 60 dc7_8.0 + 0 dc7_8.0 + 6 dm7_8 + 0 dm7_8 + 0 dm7_8.0 + 0 dm7_8.0 + 0 dm7_8 + 60 dm7_8.0 + 0 dm7_8.0 + 3 dc7_5 + 0 dc7_5 + 0 dc7_5.0 + 0 dc7_5.0 + 0 dc7_5 + 60 dc7_5.0 + 0 dc7_5.0 + 6 dm7_5 + 0 dm7_5 + 0 dm7_5.0 + 0 dm7_5.0 + 0 dm7_5 + 60 dm7_5.0 + 0 dm7_5.0 + 2 d8_9 + 0 d8_9 + 0 d8_9.0 + 0 d8_9.0 + 30 d8_9 + 30 d8_9.0 + 0 d8_9.0 + 4 d9_10 + 0 d9_10 + 0 d9_10.0 + 0 d9_10.0 + 0 d9_10 + 30 d9_10.0 + 0 d9_10.0 + 4 dc10_11 + 30 dc10_11 + 0 dc10_11.0 + 0 dc10_11.0 + 0 dc10_11 + 60 dc10_11.0 + 0 dc10_11.0 + 7 dm10_11 + 30 dm10_11 + 0 dm10_11.0 + 0 dm10_11.0 + 0 dm10_11 + 60 dm10_11.0 + 0 dm10_11.0 + 4 dc10_10 + 30 dc10_10 + 0 dc10_10.0 + 0 dc10_10.0 + 0 dc10_10 + 60 dc10_10.0 + 0 dc10_10.0 + 7 dm10_10 + 30 dm10_10 + 0 dm10_10.0 + 0 dm10_10.0 + 0 dm10_10 + 60 dm10_10.0 + 0 dm10_10.0 + 2 dc11_12 + 0 dc11_12 + 0 dc11_12.0 + 0 dc11_12.0 + 0 dc11_12 + 60 dc11_12.0 + 0 dc11_12.0 + 5 dm11_12 + 0 dm11_12 + 0 dm11_12.0 + 0 dm11_12.0 + 0 dm11_12 + 60 dm11_12.0 + 0 dm11_12.0 + 2 dc11_9 + 0 dc11_9 + 0 dc11_9.0 + 0 dc11_9.0 + 0 dc11_9 + 60 dc11_9.0 + 0 dc11_9.0 + 5 dm11_9 + 0 dm11_9 + 0 dm11_9.0 + 0 dm11_9.0 + 0 dm11_9 + 60 dm11_9.0 + 0 dm11_9.0 + 3 d12_14 + 0 d12_14 + 0 d12_14.0 + 0 d12_14.0 + 30 d12_14 + 30 d12_14.0 + 0 d12_14.0 + 6 dc14_15 + 0 dc14_15 + 0 dc14_15.0 + 0 dc14_15.0 + 60 dc14_15 + 0 dc14_15.0 + 0 dc14_15.0 + 9 dm14_15 + 0 dm14_15 + 0 dm14_15.0 + 0 dm14_15.0 + 60 dm14_15 + 0 dm14_15.0 + 0 dm14_15.0 + 2 dc14_23 + 0 dc14_23 + 0 dc14_23.0 + 0 dc14_23.0 + 60 dc14_23 + 0 dc14_23.0 + 0 dc14_23.0 + 5 dm14_23 + 0 dm14_23 + 0 dm14_23.0 + 0 dm14_23.0 + 60 dm14_23 + 0 dm14_23.0 + 0 dm14_23.0 + 2 d15_16 + 0 d15_16 + 0 d15_16.0 + 0 d15_16.0 + 30 d15_16 + 30 d15_16.0 + 0 d15_16.0 + 2 dc16_17 + 0 dc16_17 + 0 dc16_17.0 + 0 dc16_17.0 + 0 dc16_17 + 60 dc16_17.0 + 0 dc16_17.0 + 5 dm16_17 + 0 dm16_17 + 0 dm16_17.0 + 0 dm16_17.0 + 0 dm16_17 + 60 dm16_17.0 + 0 dm16_17.0 + 5 dc16_22 + 0 dc16_22 + 0 dc16_22.0 + 0 dc16_22.0 + 0 dc16_22 + 60 dc16_22.0 + 0 dc16_22.0 + 8 dm16_22 + 0 dm16_22 + 0 dm16_22.0 + 0 dm16_22.0 + 0 dm16_22 + 60 dm16_22.0 + 0 dm16_22.0 + 2 d17_18 + 0 d17_18 + 0 d17_18.0 + 0 d17_18.0 + 0 d17_18 + 30 d17_18.0 + 0 d17_18.0 + 4 dc18_19 + 0 dc18_19 + 0 dc18_19.0 + 0 dc18_19.0 + 0 dc18_19 + 60 dc18_19.0 + 0 dc18_19.0 + 7 dm18_19 + 0 dm18_19 + 0 dm18_19.0 + 0 dm18_19.0 + 0 dm18_19 + 60 dm18_19.0 + 0 dm18_19.0 + 4 dc18_21 + 0 dc18_21 + 0 dc18_21.0 + 0 dc18_21.0 + 0 dc18_21 + 60 dc18_21.0 + 0 dc18_21.0 + 7 dm18_21 + 0 dm18_21 + 0 dm18_21.0 + 0 dm18_21.0 + 0 dm18_21 + 60 dm18_21.0 + 0 dm18_21.0 + 16 d19_20 + 0 d19_20 + 0 d19_20.0 + 0 d19_20.0 + 0 d19_20 + 60 d19_20.0 + 0 d19_20.0 + 4 dc20_21 + 120 dc20_21 + 0 dc20_21.0 + 0 dc20_21.0 + 0 dc20_21 + 120 dc20_21.0 + 0 dc20_21.0 + 7 dm20_21 + 120 dm20_21 + 0 dm20_21.0 + 0 dm20_21.0 + 0 dm20_21 + 120 dm20_21.0 + 0 dm20_21.0 + 15 dc20_20 + 120 dc20_20 + 0 dc20_20.0 + 0 dc20_20.0 + 0 dc20_20 + 120 dc20_20.0 + 0 dc20_20.0 + 19 dm20_20 + 120 dm20_20 + 0 dm20_20.0 + 0 dm20_20.0 + 0 dm20_20 + 120 dm20_20.0 + 0 dm20_20.0 + 5 dc21_22 + 0 dc21_22 + 0 dc21_22.0 + 0 dc21_22.0 + 0 dc21_22 + 60 dc21_22.0 + 0 dc21_22.0 + 8 dm21_22 + 0 dm21_22 + 0 dm21_22.0 + 0 dm21_22.0 + 0 dm21_22 + 60 dm21_22.0 + 0 dm21_22.0 + 2 dc21_18 + 0 dc21_18 + 0 dc21_18.0 + 0 dc21_18.0 + 0 dc21_18 + 60 dc21_18.0 + 0 dc21_18.0 + 5 dm21_18 + 0 dm21_18 + 0 dm21_18.0 + 0 dm21_18.0 + 0 dm21_18 + 60 dm21_18.0 + 0 dm21_18.0 + 2 dc22_23 + 0 dc22_23 + 0 dc22_23.0 + 0 dc22_23.0 + 0 dc22_23 + 60 dc22_23.0 + 0 dc22_23.0 + 5 dm22_23 + 0 dm22_23 + 0 dm22_23.0 + 0 dm22_23.0 + 0 dm22_23 + 60 dm22_23.0 + 0 dm22_23.0 + 2 dc22_16 + 0 dc22_16 + 0 dc22_16.0 + 0 dc22_16.0 + 0 dc22_16 + 60 dc22_16.0 + 0 dc22_16.0 + 5 dm22_16 + 0 dm22_16 + 0 dm22_16.0 + 0 dm22_16.0 + 0 dm22_16 + 60 dm22_16.0 + 0 dm22_16.0 + 4 d23_13 + 0 d23_13 + 0 d23_13.0 + 0 d23_13.0 + 0 d23_13 + 60 d23_13.0 + 0 d23_13.0


Subject to

bm - dm3_1 - dm2_2 - dm2_3 - dm3_4 - dm7_5 - dm6_6 - dm6_7 - dm7_8 - dm11_9 - dm10_10 - dm10_11 - dm11_12 - dm14_15 - dm22_16 - dm16_17 - dm21_18 - dm18_19 - dm20_20 - dm18_21 - dm20_21 - dm16_22 - dm21_22 - dm14_23 - dm22_23 = 0

\ === tcfg constraints ===
dSta_0 = 1
b0 - d0_1 = 0
b0 - dSta_0 = 0
b1 - d1_2 = 0
b1 - d0_1 - d3_1 = 0
b2 - d2_3 - d2_2 = 0
b2 - d1_2 - d2_2 = 0
b3 - d3_4 - d3_1 = 0
b3 - d2_3 = 0
b4 - d4_5 = 0
b4 - d3_4 = 0
b5 - d5_6 = 0
b5 - d4_5 - d7_5 = 0
b6 - d6_7 - d6_6 = 0
b6 - d5_6 - d6_6 = 0
b7 - d7_8 - d7_5 = 0
b7 - d6_7 = 0
b8 - d8_9 = 0
b8 - d7_8 = 0
b9 - d9_10 = 0
b9 - d8_9 - d11_9 = 0
b10 - d10_11 - d10_10 = 0
b10 - d9_10 - d10_10 = 0
b11 - d11_12 - d11_9 = 0
b11 - d10_11 = 0
b12 - d12_14 = 0
b12 - d11_12 = 0
b13 - d23_13 = 0
b14 - d14_15 - d14_23 = 0
b14 - d12_14 = 0
b15 - d15_16 = 0
b15 - d14_15 = 0
b16 - d16_17 - d16_22 = 0
b16 - d15_16 - d22_16 = 0
b17 - d17_18 = 0
b17 - d16_17 = 0
b18 - d18_19 - d18_21 = 0
b18 - d17_18 - d21_18 = 0
b19 - d19_20 = 0
b19 - d18_19 = 0
b20 - d20_21 - d20_20 = 0
b20 - d19_20 - d20_20 = 0
b21 - d21_22 - d21_18 = 0
b21 - d18_21 - d20_21 = 0
b22 - d22_23 - d22_16 = 0
b22 - d16_22 - d21_22 = 0
b23 - d23_13 = 0
b23 - d14_23 - d22_23 = 0

c0 - f0_2T - f0_1N <= 0
c0 - f0_2T - f0_1N >= 0
c0 <= 1
c0 >= 0
c1 - f1_2T - f1_3N <= 0
c1 - f1_2T - f1_3N >= 0
c1 - f0_1N <= 0
c1 - f0_1N >= 0
c2 - f2_5T - f2_4N <= 0
c2 - f2_5T - f2_4N >= 0
c2 - f4_2T - f1_2T - f0_2T <= 0
c2 - f4_2T - f1_2T - f0_2T >= 0
c3 - f3_7T - f3_6N <= 0
c3 - f3_7T - f3_6N >= 0
c3 - f4_3N - f1_3N <= 0
c3 - f4_3N - f1_3N >= 0
c4 - f4_2T - f4_3N <= 0
c4 - f4_2T - f4_3N >= 0
c4 - f5_4N - f2_4N <= 0
c4 - f5_4N - f2_4N >= 0
c5 - f5_5T - f5_4N <= 0
c5 - f5_5T - f5_4N >= 0
c5 - f5_5T - f2_5T <= 0
c5 - f5_5T - f2_5T >= 0
c6 - f6_7T - f6_8N <= 0
c6 - f6_7T - f6_8N >= 0
c6 - f3_6N <= 0
c6 - f3_6N >= 0
c7 - f7_10T - f7_9N <= 0
c7 - f7_10T - f7_9N >= 0
c7 - f9_7T - f6_7T - f3_7T <= 0
c7 - f9_7T - f6_7T - f3_7T >= 0
c8 - f8_12T - f8_11N <= 0
c8 - f8_12T - f8_11N >= 0
c8 - f9_8N - f6_8N <= 0
c8 - f9_8N - f6_8N >= 0
c9 - f9_7T - f9_8N <= 0
c9 - f9_7T - f9_8N >= 0
c9 - f10_9N - f7_9N <= 0
c9 - f10_9N - f7_9N >= 0
c10 - f10_10T - f10_9N <= 0
c10 - f10_10T - f10_9N >= 0
c10 - f10_10T - f7_10T <= 0
c10 - f10_10T - f7_10T >= 0
c11 - f11_12T - f11_13N <= 0
c11 - f11_12T - f11_13N >= 0
c11 - f8_11N <= 0
c11 - f8_11N >= 0
c12 - f12_15T - f12_14N <= 0
c12 - f12_15T - f12_14N >= 0
c12 - f14_12T - f11_12T - f8_12T <= 0
c12 - f14_12T - f11_12T - f8_12T >= 0
c13 - f13_16N <= 1
c13 - f13_16N >= 0
c13 - f14_13N - f11_13N <= 0
c13 - f14_13N - f11_13N >= 0
c14 - f14_12T - f14_13N <= 0
c14 - f14_12T - f14_13N >= 0
c14 - f15_14N - f12_14N <= 0
c14 - f15_14N - f12_14N >= 0
c15 - f15_15T - f15_14N <= 0
c15 - f15_15T - f15_14N >= 0
c15 - f15_15T - f12_15T <= 0
c15 - f15_15T - f12_15T >= 0
c16 - f16_18T - f16_17N <= 0
c16 - f16_18T - f16_17N >= 0
c16 - f13_16N <= 0
c16 - f13_16N >= 0
c17 - f17_20T - f17_19N <= 0
c17 - f17_20T - f17_19N >= 0
c17 - f16_17N <= 0
c17 - f16_17N >= 0
c18 - f18_21T <= 1
c18 - f18_21T >= 0
c18 - f16_18T <= 0
c18 - f16_18T >= 0
c19 - f19_23T - f19_22N <= 0
c19 - f19_23T - f19_22N >= 0
c19 - f26_19N - f17_19N <= 0
c19 - f26_19N - f17_19N >= 0
c20 - f20_25T - f20_24N <= 0
c20 - f20_25T - f20_24N >= 0
c20 - f26_20T - f17_20T <= 0
c20 - f26_20T - f17_20T >= 0
c21 - f21_27T - f21_26N <= 0
c21 - f21_27T - f21_26N >= 0
c21 - f27_21T - f18_21T <= 0
c21 - f27_21T - f18_21T >= 0
c22 - f22_29T - f22_28N <= 0
c22 - f22_29T - f22_28N >= 0
c22 - f33_22N - f19_22N <= 0
c22 - f33_22N - f19_22N >= 0
c23 - f23_31T - f23_30N <= 0
c23 - f23_31T - f23_30N >= 0
c23 - f33_23T - f19_23T <= 0
c23 - f33_23T - f19_23T >= 0
c24 - f24_32T <= 1
c24 - f24_32T >= 0
c24 - f34_24N - f20_24N <= 0
c24 - f34_24N - f20_24N >= 0
c25 - f25_34T - f25_33N <= 0
c25 - f25_34T - f25_33N >= 0
c25 - f34_25T - f20_25T <= 0
c25 - f34_25T - f20_25T >= 0
c26 - f26_20T - f26_19N <= 0
c26 - f26_20T - f26_19N >= 0
c26 - f32_26N - f21_26N <= 0
c26 - f32_26N - f21_26N >= 0
c27 - f27_21T <= 1
c27 - f27_21T >= 0
c27 - f32_27T - f21_27T <= 0
c27 - f32_27T - f21_27T >= 0
c28 - f28_32T <= 1
c28 - f28_32T >= 0
c28 - f30_28N - f22_28N <= 0
c28 - f30_28N - f22_28N >= 0
c29 - f29_34T - f29_33N <= 0
c29 - f29_34T - f29_33N >= 0
c29 - f30_29T - f22_29T <= 0
c29 - f30_29T - f22_29T >= 0
c30 - f30_29T - f30_28N <= 0
c30 - f30_29T - f30_28N >= 0
c30 - f31_30N - f23_30N <= 0
c30 - f31_30N - f23_30N >= 0
c31 - f31_31T - f31_30N <= 0
c31 - f31_31T - f31_30N >= 0
c31 - f31_31T - f23_31T <= 0
c31 - f31_31T - f23_31T >= 0
c32 - f32_27T - f32_26N <= 0
c32 - f32_27T - f32_26N >= 0
c32 - f28_32T - f24_32T <= 0
c32 - f28_32T - f24_32T >= 0
c33 - f33_23T - f33_22N <= 0
c33 - f33_23T - f33_22N >= 0
c33 - f29_33N - f25_33N <= 0
c33 - f29_33N - f25_33N >= 0
c34 - f34_25T - f34_24N <= 0
c34 - f34_25T - f34_24N >= 0
c34 - f29_34T - f25_34T <= 0
c34 - f29_34T - f25_34T >= 0


f0_2T - fc0_2T - fm0_2T = 0
f0_1N - fc0_1N - fm0_1N = 0
f1_2T - fc1_2T - fm1_2T = 0
f1_3N - fc1_3N - fm1_3N = 0
f2_5T - fc2_5T - fm2_5T = 0
f2_4N - fc2_4N - fm2_4N = 0
f3_7T - fc3_7T - fm3_7T = 0
f3_6N - fc3_6N - fm3_6N = 0
f4_2T - fc4_2T - fm4_2T = 0
f4_3N - fc4_3N - fm4_3N = 0
f5_5T - fc5_5T - fm5_5T = 0
f5_4N - fc5_4N - fm5_4N = 0
f6_7T - fc6_7T - fm6_7T = 0
f6_8N - fc6_8N - fm6_8N = 0
f7_10T - fc7_10T - fm7_10T = 0
f7_9N - fc7_9N - fm7_9N = 0
f8_12T - fc8_12T - fm8_12T = 0
f8_11N - fc8_11N - fm8_11N = 0
f9_7T - fc9_7T - fm9_7T = 0
f9_8N - fc9_8N - fm9_8N = 0
f10_10T - fc10_10T - fm10_10T = 0
f10_9N - fc10_9N - fm10_9N = 0
f11_12T - fc11_12T - fm11_12T = 0
f11_13N - fc11_13N - fm11_13N = 0
f12_15T - fc12_15T - fm12_15T = 0
f12_14N - fc12_14N - fm12_14N = 0
f13_16N - fc13_16N - fm13_16N = 0
f14_12T - fc14_12T - fm14_12T = 0
f14_13N - fc14_13N - fm14_13N = 0
f15_15T - fc15_15T - fm15_15T = 0
f15_14N - fc15_14N - fm15_14N = 0
f16_18T - fc16_18T - fm16_18T = 0
f16_17N - fc16_17N - fm16_17N = 0
f17_20T - fc17_20T - fm17_20T = 0
f17_19N - fc17_19N - fm17_19N = 0
f18_21T - fc18_21T - fm18_21T = 0
f19_23T - fc19_23T - fm19_23T = 0
f19_22N - fc19_22N - fm19_22N = 0
f20_25T - fc20_25T - fm20_25T = 0
f20_24N - fc20_24N - fm20_24N = 0
f21_27T - fc21_27T - fm21_27T = 0
f21_26N - fc21_26N - fm21_26N = 0
f22_29T - fc22_29T - fm22_29T = 0
f22_28N - fc22_28N - fm22_28N = 0
f23_31T - fc23_31T - fm23_31T = 0
f23_30N - fc23_30N - fm23_30N = 0
f24_32T - fc24_32T - fm24_32T = 0
f25_34T - fc25_34T - fm25_34T = 0
f25_33N - fc25_33N - fm25_33N = 0
f26_20T - fc26_20T - fm26_20T = 0
f26_19N - fc26_19N - fm26_19N = 0
f27_21T - fc27_21T - fm27_21T = 0
f28_32T - fc28_32T - fm28_32T = 0
f29_34T - fc29_34T - fm29_34T = 0
f29_33N - fc29_33N - fm29_33N = 0
f30_29T - fc30_29T - fm30_29T = 0
f30_28N - fc30_28N - fm30_28N = 0
f31_31T - fc31_31T - fm31_31T = 0
f31_30N - fc31_30N - fm31_30N = 0
f32_27T - fc32_27T - fm32_27T = 0
f32_26N - fc32_26N - fm32_26N = 0
f33_23T - fc33_23T - fm33_23T = 0
f33_22N - fc33_22N - fm33_22N = 0
f34_25T - fc34_25T - fm34_25T = 0
f34_24N - fc34_24N - fm34_24N = 0

c0 <= 1
c0 >= 0
c1 <= 1
c1 >= 0
c2 - p2_2N - p2_2T <= 1
c2 - p2_2N - p2_2T >= 0
c3 <= 1
c3 >= 0
c4 - p4_4T <= 1
c4 - p4_4T >= 0
c5 - p5_5N - p5_5T <= 1
c5 - p5_5N - p5_5T >= 0
c6 <= 1
c6 >= 0
c7 - p7_7N - p7_7T <= 1
c7 - p7_7N - p7_7T >= 0
c8 <= 1
c8 >= 0
c9 - p9_9T <= 1
c9 - p9_9T >= 0
c10 - p10_10N - p10_10T <= 1
c10 - p10_10N - p10_10T >= 0
c11 - p5_11N <= 1
c11 - p5_11N >= 0
c12 - p12_12N - p12_12T <= 1
c12 - p12_12N - p12_12T >= 0
c13 <= 1
c13 >= 0
c14 - p14_14T - p2_14N - p2_14T <= 1
c14 - p14_14T - p2_14N - p2_14T >= 0
c15 - p15_15N - p15_15T <= 1
c15 - p15_15N - p15_15T >= 0
c16 <= 1
c16 >= 0
c17 <= 1
c17 >= 0
c18 <= 1
c18 >= 0
c19 - p19_19N - p19_19T <= 1
c19 - p19_19N - p19_19T >= 0
c20 - p20_20N - p20_20T <= 1
c20 - p20_20N - p20_20T >= 0
c21 - p21_21N - p21_21T <= 1
c21 - p21_21N - p21_21T >= 0
c22 - p22_22N - p22_22T <= 1
c22 - p22_22N - p22_22T >= 0
c23 - p23_23N - p23_23T <= 1
c23 - p23_23N - p23_23T >= 0
c24 - p24_24T <= 1
c24 - p24_24T >= 0
c25 - p25_25N - p25_25T <= 1
c25 - p25_25N - p25_25T >= 0
c26 - p26_26N - p26_26T <= 1
c26 - p26_26N - p26_26T >= 0
c27 - p27_27T <= 1
c27 - p27_27T >= 0
c28 - p28_28T <= 1
c28 - p28_28T >= 0
c29 - p29_29N - p29_29T <= 1
c29 - p29_29N - p29_29T >= 0
c30 - p30_30N - p30_30T <= 1
c30 - p30_30N - p30_30T >= 0
c31 - p31_31N - p31_31T <= 1
c31 - p31_31N - p31_31T >= 0
c32 - p32_32N - p32_32T <= 1
c32 - p32_32N - p32_32T >= 0
c33 - p33_33N - p33_33T <= 1
c33 - p33_33N - p33_33T >= 0
c34 - p34_34N - p34_34T <= 1
c34 - p34_34N - p34_34T >= 0

f0_2T <= 1
f0_2T >= 0
f0_1N <= 1
f0_1N >= 0
f1_2T <= 1
f1_2T >= 0
f1_3N <= 1
f1_3N >= 0
f2_5T - p2_14T - p2_2T <= 1
f2_5T - p2_14T - p2_2T >= 0
f2_4N - p2_14N - p2_2N <= 1
f2_4N - p2_14N - p2_2N >= 0
f3_7T <= 1
f3_7T >= 0
f3_6N <= 1
f3_6N >= 0
f4_2T - p4_4T <= 0
f4_2T - p4_4T >= 0
f4_3N <= 1
f4_3N >= 0
f5_5T - p5_5T <= 0
f5_5T - p5_5T >= 0
f5_4N - p5_11N - p5_5N <= 1
f5_4N - p5_11N - p5_5N >= 0
f6_7T <= 1
f6_7T >= 0
f6_8N <= 1
f6_8N >= 0
f7_10T - p7_7T <= 1
f7_10T - p7_7T >= 0
f7_9N - p7_7N <= 1
f7_9N - p7_7N >= 0
f8_12T <= 1
f8_12T >= 0
f8_11N <= 1
f8_11N >= 0
f9_7T - p9_9T <= 0
f9_7T - p9_9T >= 0
f9_8N <= 1
f9_8N >= 0
f10_10T - p10_10T <= 0
f10_10T - p10_10T >= 0
f10_9N - p10_10N <= 1
f10_9N - p10_10N >= 0
f11_12T <= 1
f11_12T >= 0
f11_13N <= 1
f11_13N >= 0
f12_15T - p12_12T <= 1
f12_15T - p12_12T >= 0
f12_14N - p12_12N <= 1
f12_14N - p12_12N >= 0
f13_16N <= 1
f13_16N >= 0
f14_12T - p14_14T <= 0
f14_12T - p14_14T >= 0
f14_13N <= 1
f14_13N >= 0
f15_15T - p15_15T <= 0
f15_15T - p15_15T >= 0
f15_14N - p15_15N <= 1
f15_14N - p15_15N >= 0
f16_18T <= 1
f16_18T >= 0
f16_17N <= 1
f16_17N >= 0
f17_20T <= 1
f17_20T >= 0
f17_19N <= 1
f17_19N >= 0
f18_21T <= 1
f18_21T >= 0
f19_23T - p19_19T <= 1
f19_23T - p19_19T >= 0
f19_22N - p19_19N <= 1
f19_22N - p19_19N >= 0
f20_25T - p20_20T <= 1
f20_25T - p20_20T >= 0
f20_24N - p20_20N <= 1
f20_24N - p20_20N >= 0
f21_27T - p21_21T <= 1
f21_27T - p21_21T >= 0
f21_26N - p21_21N <= 1
f21_26N - p21_21N >= 0
f22_29T - p22_22T <= 1
f22_29T - p22_22T >= 0
f22_28N - p22_22N <= 1
f22_28N - p22_22N >= 0
f23_31T - p23_23T <= 1
f23_31T - p23_23T >= 0
f23_30N - p23_23N <= 1
f23_30N - p23_23N >= 0
f24_32T - p24_24T <= 1
f24_32T - p24_24T >= 0
f25_34T - p25_25T <= 1
f25_34T - p25_25T >= 0
f25_33N - p25_25N <= 1
f25_33N - p25_25N >= 0
f26_20T - p26_26T <= 1
f26_20T - p26_26T >= 0
f26_19N - p26_26N <= 1
f26_19N - p26_26N >= 0
f27_21T - p27_27T <= 1
f27_21T - p27_27T >= 0
f28_32T - p28_28T <= 1
f28_32T - p28_28T >= 0
f29_34T - p29_29T <= 1
f29_34T - p29_29T >= 0
f29_33N - p29_29N <= 1
f29_33N - p29_29N >= 0
f30_29T - p30_30T <= 1
f30_29T - p30_30T >= 0
f30_28N - p30_30N <= 1
f30_28N - p30_30N >= 0
f31_31T - p31_31T <= 0
f31_31T - p31_31T >= 0
f31_30N - p31_31N <= 1
f31_30N - p31_31N >= 0
f32_27T - p32_32T <= 1
f32_27T - p32_32T >= 0
f32_26N - p32_32N <= 1
f32_26N - p32_32N >= 0
f33_23T - p33_33T <= 1
f33_23T - p33_33T >= 0
f33_22N - p33_33N <= 1
f33_22N - p33_33N >= 0
f34_25T - p34_34T <= 1
f34_25T - p34_34T >= 0
f34_24N - p34_34N <= 1
f34_24N - p34_34N >= 0

fm0_2T <= 1
fm0_1N <= 1
fm1_2T <= 1
fm1_3N <= 1
fm2_5T - p2_2N <= 1
fm2_4N - p2_2T <= 1
fm3_7T <= 1
fm3_6N <= 1
fm4_2T <= 1
fm4_3N - p4_4T <= 1
fm5_5T - p5_5N <= 1
fm5_4N - p5_5T <= 1
fm6_7T <= 1
fm6_8N <= 1
fm7_10T - p7_7N <= 1
fm7_9N - p7_7T <= 1
fm8_12T <= 1
fm8_11N <= 1
fm9_7T <= 1
fm9_8N - p9_9T <= 1
fm10_10T - p10_10N <= 1
fm10_9N - p10_10T <= 1
fm11_12T - p5_11N <= 1
fm11_13N <= 1
fm12_15T - p12_12N <= 1
fm12_14N - p12_12T <= 1
fm13_16N <= 1
fm14_12T - p2_14N <= 1
fm14_13N - p14_14T - p2_14T <= 1
fm15_15T - p15_15N <= 1
fm15_14N - p15_15T <= 1
fm16_18T <= 1
fm16_17N <= 1
fm17_20T <= 1
fm17_19N <= 1
fm18_21T <= 1
fm19_23T - p19_19N <= 1
fm19_22N - p19_19T <= 1
fm20_25T - p20_20N <= 1
fm20_24N - p20_20T <= 1
fm21_27T - p21_21N <= 1
fm21_26N - p21_21T <= 1
fm22_29T - p22_22N <= 1
fm22_28N - p22_22T <= 1
fm23_31T - p23_23N <= 1
fm23_30N - p23_23T <= 1
fm24_32T <= 1
fm25_34T - p25_25N <= 1
fm25_33N - p25_25T <= 1
fm26_20T - p26_26N <= 1
fm26_19N - p26_26T <= 1
fm27_21T <= 1
fm28_32T <= 1
fm29_34T - p29_29N <= 1
fm29_33N - p29_29T <= 1
fm30_29T - p30_30N <= 1
fm30_28N - p30_30T <= 1
fm31_31T - p31_31N <= 1
fm31_30N - p31_31T <= 1
fm32_27T - p32_32N <= 1
fm32_26N - p32_32T <= 1
fm33_23T - p33_33N <= 1
fm33_22N - p33_33T <= 1
fm34_25T - p34_34N <= 1
fm34_24N - p34_34T <= 1

b2 - c0 - c5 - c2 = 0
b3 - c4 - c1 = 0
b6 - c3 - c7 - c10 = 0
b7 - c6 - c9 = 0
b10 - c8 - c12 - c15 = 0
b11 - c11 - c14 = 0
b14 - c13 = 0
b16 - c21 - c16 - c32 = 0
b18 - c26 - c25 - c17 - c29 = 0
b20 - c33 - c31 - c19 - c23 = 0
b21 - c34 - c30 - c20 - c22 = 0
b22 - c27 - c24 - c18 - c28 = 0
d2_3 - dc2_3 - dm2_3 = 0
d2_2 - dc2_2 - dm2_2 = 0
d3_4 - dc3_4 - dm3_4 = 0
d3_1 - dc3_1 - dm3_1 = 0
d6_7 - dc6_7 - dm6_7 = 0
d6_6 - dc6_6 - dm6_6 = 0
d7_8 - dc7_8 - dm7_8 = 0
d7_5 - dc7_5 - dm7_5 = 0
d10_11 - dc10_11 - dm10_11 = 0
d10_10 - dc10_10 - dm10_10 = 0
d11_12 - dc11_12 - dm11_12 = 0
d11_9 - dc11_9 - dm11_9 = 0
d14_15 - dc14_15 - dm14_15 = 0
d14_23 - dc14_23 - dm14_23 = 0
d16_17 - dc16_17 - dm16_17 = 0
d16_22 - dc16_22 - dm16_22 = 0
d18_19 - dc18_19 - dm18_19 = 0
d18_21 - dc18_21 - dm18_21 = 0
d20_21 - dc20_21 - dm20_21 = 0
d20_20 - dc20_20 - dm20_20 = 0
d21_22 - dc21_22 - dm21_22 = 0
d21_18 - dc21_18 - dm21_18 = 0
d22_23 - dc22_23 - dm22_23 = 0
d22_16 - dc22_16 - dm22_16 = 0
d2_3 - f0_1N - f5_4N - f2_4N = 0
dm2_3 - fm0_1N - fm5_4N - fm2_4N = 0
d2_2 - f0_2T - f5_5T - f2_5T = 0
dm2_2 - fm0_2T - fm5_5T - fm2_5T = 0
d3_4 - f4_3N - f1_3N = 0
dm3_4 - fm4_3N - fm1_3N = 0
d3_1 - f4_2T - f1_2T = 0
dm3_1 - fm4_2T - fm1_2T = 0
d6_7 - f3_6N - f7_9N - f10_9N = 0
dm6_7 - fm3_6N - fm7_9N - fm10_9N = 0
d6_6 - f3_7T - f7_10T - f10_10T = 0
dm6_6 - fm3_7T - fm7_10T - fm10_10T = 0
d7_8 - f6_8N - f9_8N = 0
dm7_8 - fm6_8N - fm9_8N = 0
d7_5 - f6_7T - f9_7T = 0
dm7_5 - fm6_7T - fm9_7T = 0
d10_11 - f8_11N - f12_14N - f15_14N = 0
dm10_11 - fm8_11N - fm12_14N - fm15_14N = 0
d10_10 - f8_12T - f12_15T - f15_15T = 0
dm10_10 - fm8_12T - fm12_15T - fm15_15T = 0
d11_12 - f11_13N - f14_13N = 0
dm11_12 - fm11_13N - fm14_13N = 0
d11_9 - f11_12T - f14_12T = 0
dm11_9 - fm11_12T - fm14_12T = 0
d14_15 - f13_16N = 0
dm14_15 - fm13_16N = 0
d14_23 <= 1
dm14_23 <= 1
d16_17 - f21_26N - f16_17N - f32_26N = 0
dm16_17 - fm21_26N - fm16_17N - fm32_26N = 0
d16_22 - f21_27T - f16_18T - f32_27T = 0
dm16_22 - fm21_27T - fm16_18T - fm32_27T = 0
d18_19 - f26_19N - f25_33N - f17_19N - f29_33N = 0
dm18_19 - fm26_19N - fm25_33N - fm17_19N - fm29_33N = 0
d18_21 - f26_20T - f25_34T - f17_20T - f29_34T = 0
dm18_21 - fm26_20T - fm25_34T - fm17_20T - fm29_34T = 0
d20_21 - f33_22N - f31_30N - f19_22N - f23_30N = 0
dm20_21 - fm33_22N - fm31_30N - fm19_22N - fm23_30N = 0
d20_20 - f33_23T - f31_31T - f19_23T - f23_31T = 0
dm20_20 - fm33_23T - fm31_31T - fm19_23T - fm23_31T = 0
d21_22 - f34_24N - f30_28N - f20_24N - f22_28N = 0
dm21_22 - fm34_24N - fm30_28N - fm20_24N - fm22_28N = 0
d21_18 - f34_25T - f30_29T - f20_25T - f22_29T = 0
dm21_18 - fm34_25T - fm30_29T - fm20_25T - fm22_29T = 0
d22_23 <= 1
dm22_23 <= 1
d22_16 - f27_21T - f24_32T - f18_21T - f28_32T = 0
dm22_16 - fm27_21T - fm24_32T - fm18_21T - fm28_32T = 0


\ === tcfg_estunit_cons_ps ===
d0_1 - d0_1.0 >= 0
d0_1.0 <= 1
d1_2 - d1_2.0 >= 0
d1_2.0 <= 1
d2_3 - d2_3.0 >= 0
d2_3.0 <= 1
d2_2 - d2_2.0 >= 0
d2_2.0 <= 1
d3_4 - d3_4.0 >= 0
d3_4.0 <= 1
d3_1 - d3_1.0 >= 0
d3_1.0 <= 1
d4_5 - d4_5.0 >= 0
d4_5.0 <= 1
d5_6 - d5_6.0 >= 0
d5_6.0 <= 1
d6_7 - d6_7.0 >= 0
d6_7.0 <= 1
d6_6 - d6_6.0 >= 0
d6_6.0 <= 1
d7_8 - d7_8.0 >= 0
d7_8.0 <= 1
d7_5 - d7_5.0 >= 0
d7_5.0 <= 1
d8_9 - d8_9.0 >= 0
d8_9.0 <= 1
d9_10 - d9_10.0 >= 0
d9_10.0 <= 1
d10_11 - d10_11.0 >= 0
d10_11.0 <= 1
d10_10 - d10_10.0 >= 0
d10_10.0 <= 1
d11_12 - d11_12.0 >= 0
d11_12.0 <= 1
d11_9 - d11_9.0 >= 0
d11_9.0 <= 1
d12_14 - d12_14.0 >= 0
d12_14.0 <= 1
d14_15 - d14_15.0 >= 0
d14_15.0 <= 1
d14_23 - d14_23.0 >= 0
d14_23.0 <= 1
d15_16 - d15_16.0 >= 0
d15_16.0 <= 1
d16_17 - d16_17.0 >= 0
d16_17.0 <= 1
d16_22 - d16_22.0 >= 0
d16_22.0 <= 1
d17_18 - d17_18.0 >= 0
d17_18.0 <= 1
d18_19 - d18_19.0 >= 0
d18_19.0 <= 1
d18_21 - d18_21.0 >= 0
d18_21.0 <= 1
d19_20 - d19_20.0 >= 0
d19_20.0 <= 1
d20_21 - d20_21.0 >= 0
d20_21.0 <= 1
d20_20 - d20_20.0 >= 0
d20_20.0 <= 1
d21_22 - d21_22.0 >= 0
d21_22.0 <= 1
d21_18 - d21_18.0 >= 0
d21_18.0 <= 1
d22_23 - d22_23.0 >= 0
d22_23.0 <= 1
d22_16 - d22_16.0 >= 0
d22_16.0 <= 1
d23_13 - d23_13.0 >= 0
d23_13.0 <= 1

\ === infeasible path constraints ===

b1- 32 b0 <= 0
b2- 32 b1 <= 0
b5- 32 b4 <= 0
b6- 32 b5 <= 0
b9- 32 b8 <= 0
b10- 32 b9 <= 0
b16- 32 b15 <= 0
b18- 32 b17 <= 0
b20- 32 b19 <= 0

Generals

bm
Sta
b0
d0_1
b1
d1_2
b2
d2_3
d2_2
b3
d3_4
d3_1
b4
d4_5
b5
d5_6
b6
d6_7
d6_6
b7
d7_8
d7_5
b8
d8_9
b9
d9_10
b10
d10_11
d10_10
b11
d11_12
d11_9
b12
d12_14
b13
b14
d14_15
d14_23
b15
d15_16
b16
d16_17
d16_22
b17
d17_18
b18
d18_19
d18_21
b19
d19_20
b20
d20_21
d20_20
b21
d21_22
d21_18
b22
d22_23
d22_16
b23
d23_13
c0
f0_2T
f0_1N
f0_2T
f0_1N
c1
f1_2T
f1_3N
f1_2T
f1_3N
c2
f2_5T
f2_4N
f2_5T
f2_4N
c3
f3_7T
f3_6N
f3_7T
f3_6N
c4
f4_2T
f4_3N
f4_2T
f4_3N
c5
f5_5T
f5_4N
f5_5T
f5_4N
c6
f6_7T
f6_8N
f6_7T
f6_8N
c7
f7_10T
f7_9N
f7_10T
f7_9N
c8
f8_12T
f8_11N
f8_12T
f8_11N
c9
f9_7T
f9_8N
f9_7T
f9_8N
c10
f10_10T
f10_9N
f10_10T
f10_9N
c11
f11_12T
f11_13N
f11_12T
f11_13N
c12
f12_15T
f12_14N
f12_15T
f12_14N
c13
f13_16N
f13_16N
c14
f14_12T
f14_13N
f14_12T
f14_13N
c15
f15_15T
f15_14N
f15_15T
f15_14N
c16
f16_18T
f16_17N
f16_18T
f16_17N
c17
f17_20T
f17_19N
f17_20T
f17_19N
c18
f18_21T
f18_21T
c19
f19_23T
f19_22N
f19_23T
f19_22N
c20
f20_25T
f20_24N
f20_25T
f20_24N
c21
f21_27T
f21_26N
f21_27T
f21_26N
c22
f22_29T
f22_28N
f22_29T
f22_28N
c23
f23_31T
f23_30N
f23_31T
f23_30N
c24
f24_32T
f24_32T
c25
f25_34T
f25_33N
f25_34T
f25_33N
c26
f26_20T
f26_19N
f26_20T
f26_19N
c27
f27_21T
f27_21T
c28
f28_32T
f28_32T
c29
f29_34T
f29_33N
f29_34T
f29_33N
c30
f30_29T
f30_28N
f30_29T
f30_28N
c31
f31_31T
f31_30N
f31_31T
f31_30N
c32
f32_27T
f32_26N
f32_27T
f32_26N
c33
f33_23T
f33_22N
f33_23T
f33_22N
c34
f34_25T
f34_24N
f34_25T
f34_24N
fc0_2T
fm0_2T
fc0_1N
fm0_1N
fc1_2T
fm1_2T
fc1_3N
fm1_3N
fc2_5T
fm2_5T
fc2_4N
fm2_4N
fc3_7T
fm3_7T
fc3_6N
fm3_6N
fc4_2T
fm4_2T
fc4_3N
fm4_3N
fc5_5T
fm5_5T
fc5_4N
fm5_4N
fc6_7T
fm6_7T
fc6_8N
fm6_8N
fc7_10T
fm7_10T
fc7_9N
fm7_9N
fc8_12T
fm8_12T
fc8_11N
fm8_11N
fc9_7T
fm9_7T
fc9_8N
fm9_8N
fc10_10T
fm10_10T
fc10_9N
fm10_9N
fc11_12T
fm11_12T
fc11_13N
fm11_13N
fc12_15T
fm12_15T
fc12_14N
fm12_14N
fc13_16N
fm13_16N
fc14_12T
fm14_12T
fc14_13N
fm14_13N
fc15_15T
fm15_15T
fc15_14N
fm15_14N
fc16_18T
fm16_18T
fc16_17N
fm16_17N
fc17_20T
fm17_20T
fc17_19N
fm17_19N
fc18_21T
fm18_21T
fc19_23T
fm19_23T
fc19_22N
fm19_22N
fc20_25T
fm20_25T
fc20_24N
fm20_24N
fc21_27T
fm21_27T
fc21_26N
fm21_26N
fc22_29T
fm22_29T
fc22_28N
fm22_28N
fc23_31T
fm23_31T
fc23_30N
fm23_30N
fc24_32T
fm24_32T
fc25_34T
fm25_34T
fc25_33N
fm25_33N
fc26_20T
fm26_20T
fc26_19N
fm26_19N
fc27_21T
fm27_21T
fc28_32T
fm28_32T
fc29_34T
fm29_34T
fc29_33N
fm29_33N
fc30_29T
fm30_29T
fc30_28N
fm30_28N
fc31_31T
fm31_31T
fc31_30N
fm31_30N
fc32_27T
fm32_27T
fc32_26N
fm32_26N
fc33_23T
fm33_23T
fc33_22N
fm33_22N
fc34_25T
fm34_25T
fc34_24N
fm34_24N
dc2_3
dm2_3
dc2_2
dm2_2
dc3_4
dm3_4
dc3_1
dm3_1
dc6_7
dm6_7
dc6_6
dm6_6
dc7_8
dm7_8
dc7_5
dm7_5
dc10_11
dm10_11
dc10_10
dm10_10
dc11_12
dm11_12
dc11_9
dm11_9
dc14_15
dm14_15
dc14_23
dm14_23
dc16_17
dm16_17
dc16_22
dm16_22
dc18_19
dm18_19
dc18_21
dm18_21
dc20_21
dm20_21
dc20_20
dm20_20
dc21_22
dm21_22
dc21_18
dm21_18
dc22_23
dm22_23
dc22_16
dm22_16

End
\ total_cons: 682 	total_vars: 404
optimize
set logfile ../benchmarks/org_matmult/maxmult_org.c.bin.sol
display solution objective
display solution variables -
quit
